28
1898 440 22507 270 14148 3100 4650 30800 615 4975
1160 4225 510 11880 479 440 490 330 110 560
24355 2885 11748 4550 750 3720 1950 10500
500
45 0 85 150 65 95 30 0 170 0
40 25 20 0 0 25 0 0 25 0
165 0 85 0 0 0 0 100

130883